Cost: 707
0-26-10-31-39-0
0-9-25-18-44-3-0
0-37-20-15-13-27-0
0-1-43-41-42-22-0
0-47-36-21-28-2-0
0-17-32-40-12-0
0-38-11-14-19-35-0
0-7-8-46-34-4-0
0-16-49-24-23-33-6-0
0-45-29-5-48-30-0
Cost: 707
0-26-10-31-39-0
0-9-25-18-44-3-0
0-37-20-15-13-27-0
0-1-43-41-42-22-0
0-47-36-21-28-2-0
0-17-32-40-12-0
0-38-11-14-19-35-0
0-7-8-46-34-4-0
0-16-49-24-23-33-6-0
0-45-29-5-48-30-0
Cost: 707
0-26-10-31-39-0
0-9-25-18-44-3-0
0-37-20-15-13-27-0
0-1-43-41-42-22-0
0-47-36-21-28-2-0
0-17-32-40-12-0
0-38-11-14-19-35-0
0-7-8-46-34-4-0
0-16-49-24-23-33-6-0
0-45-29-5-48-30-0
Cost: 707
0-26-10-31-39-0
0-9-25-18-44-3-0
0-37-20-15-13-27-0
0-1-43-41-42-22-0
0-47-36-21-28-2-0
0-17-32-40-12-0
0-38-11-14-19-35-0
0-7-8-46-34-4-0
0-16-49-24-23-33-6-0
0-45-29-5-48-30-0
Cost: 707
0-26-10-31-39-0
0-9-25-18-44-3-0
0-37-20-15-13-27-0
0-1-43-41-42-22-0
0-47-36-21-28-2-0
0-17-32-40-12-0
0-38-11-14-19-35-0
0-7-8-46-34-4-0
0-16-49-24-23-33-6-0
0-45-29-5-48-30-0
Cost: 707
0-26-10-31-39-0
0-9-25-18-44-3-0
0-37-20-15-13-27-0
0-1-43-41-42-22-0
0-47-36-21-28-2-0
0-17-32-40-12-0
0-38-11-14-19-35-0
0-7-8-46-34-4-0
0-16-49-24-23-33-6-0
0-45-29-5-48-30-0
Cost: 707
0-26-10-31-39-0
0-9-25-18-44-3-0
0-37-20-15-13-27-0
0-1-43-41-42-22-0
0-47-36-21-28-2-0
0-17-32-40-12-0
0-38-11-14-19-35-0
0-7-8-46-34-4-0
0-16-49-24-23-33-6-0
0-45-29-5-48-30-0
Cost: 707
0-26-10-31-39-0
0-9-25-18-44-3-0
0-37-20-15-13-27-0
0-1-43-41-42-22-0
0-47-36-21-28-2-0
0-17-32-40-12-0
0-38-11-14-19-35-0
0-7-8-46-34-4-0
0-16-49-24-23-33-6-0
0-45-29-5-48-30-0
Cost: 707
0-26-10-31-39-0
0-9-25-18-44-3-0
0-37-20-15-13-27-0
0-1-43-41-42-22-0
0-47-36-21-28-2-0
0-17-32-40-12-0
0-38-11-14-19-35-0
0-7-8-46-34-4-0
0-16-49-24-23-33-6-0
0-45-29-5-48-30-0
Cost: 707
0-26-10-31-39-0
0-9-25-18-44-3-0
0-37-20-15-13-27-0
0-1-43-41-42-22-0
0-47-36-21-28-2-0
0-17-32-40-12-0
0-38-11-14-19-35-0
0-7-8-46-34-4-0
0-16-49-24-23-33-6-0
0-45-29-5-48-30-0
Cost: 707
0-26-10-31-39-0
0-9-25-18-44-3-0
0-37-20-15-13-27-0
0-1-43-41-42-22-0
0-47-36-21-28-2-0
0-17-32-40-12-0
0-38-11-14-19-35-0
0-7-8-46-34-4-0
0-16-49-24-23-33-6-0
0-45-29-5-48-30-0
Cost: 707
0-26-10-31-39-0
0-9-25-18-44-3-0
0-37-20-15-13-27-0
0-1-43-41-42-22-0
0-47-36-21-28-2-0
0-17-32-40-12-0
0-38-11-14-19-35-0
0-7-8-46-34-4-0
0-16-49-24-23-33-6-0
0-45-29-5-48-30-0
Cost: 707
0-26-10-31-39-0
0-9-25-18-44-3-0
0-37-20-15-13-27-0
0-1-43-41-42-22-0
0-47-36-21-28-2-0
0-17-32-40-12-0
0-38-11-14-19-35-0
0-7-8-46-34-4-0
0-16-49-24-23-33-6-0
0-45-29-5-48-30-0
Cost: 707
0-26-10-31-39-0
0-9-25-18-44-3-0
0-37-20-15-13-27-0
0-1-43-41-42-22-0
0-47-36-21-28-2-0
0-17-32-40-12-0
0-38-11-14-19-35-0
0-7-8-46-34-4-0
0-16-49-24-23-33-6-0
0-45-29-5-48-30-0
Cost: 707
0-26-10-31-39-0
0-9-25-18-44-3-0
0-37-20-15-13-27-0
0-1-43-41-42-22-0
0-47-36-21-28-2-0
0-17-32-40-12-0
0-38-11-14-19-35-0
0-7-8-46-34-4-0
0-16-49-24-23-33-6-0
0-45-29-5-48-30-0
Cost: 707
0-26-10-31-39-0
0-9-25-18-44-3-0
0-37-20-15-13-27-0
0-1-43-41-42-22-0
0-47-36-21-28-2-0
0-17-32-40-12-0
0-38-11-14-19-35-0
0-7-8-46-34-4-0
0-16-49-24-23-33-6-0
0-45-29-5-48-30-0
Cost: 707
0-26-10-31-39-0
0-9-25-18-44-3-0
0-37-20-15-13-27-0
0-1-43-41-42-22-0
0-47-36-21-28-2-0
0-17-32-40-12-0
0-38-11-14-19-35-0
0-7-8-46-34-4-0
0-16-49-24-23-33-6-0
0-45-29-5-48-30-0
Cost: 707
0-26-10-31-39-0
0-9-25-18-44-3-0
0-37-20-15-13-27-0
0-1-43-41-42-22-0
0-47-36-21-28-2-0
0-17-32-40-12-0
0-38-11-14-19-35-0
0-7-8-46-34-4-0
0-16-49-24-23-33-6-0
0-45-29-5-48-30-0
Cost: 707
0-26-10-31-39-0
0-9-25-18-44-3-0
0-37-20-15-13-27-0
0-1-43-41-42-22-0
0-47-36-21-28-2-0
0-17-32-40-12-0
0-38-11-14-19-35-0
0-7-8-46-34-4-0
0-16-49-24-23-33-6-0
0-45-29-5-48-30-0
Cost: 707
0-26-10-31-39-0
0-9-25-18-44-3-0
0-37-20-15-13-27-0
0-1-43-41-42-22-0
0-47-36-21-28-2-0
0-17-32-40-12-0
0-38-11-14-19-35-0
0-7-8-46-34-4-0
0-16-49-24-23-33-6-0
0-45-29-5-48-30-0
Cost: 707
0-26-10-31-39-0
0-9-25-18-44-3-0
0-37-20-15-13-27-0
0-1-43-41-42-22-0
0-47-36-21-28-2-0
0-17-32-40-12-0
0-38-11-14-19-35-0
0-7-8-46-34-4-0
0-16-49-24-23-33-6-0
0-45-29-5-48-30-0
Cost: 707
0-26-10-31-39-0
0-9-25-18-44-3-0
0-37-20-15-13-27-0
0-1-43-41-42-22-0
0-47-36-21-28-2-0
0-17-32-40-12-0
0-38-11-14-19-35-0
0-7-8-46-34-4-0
0-16-49-24-23-33-6-0
0-45-29-5-48-30-0
Cost: 707
0-39-31-10-26-0
0-22-42-41-43-1-0
0-37-20-15-13-27-0
0-44-32-40-12-0
0-30-48-5-29-45-0
0-35-19-14-11-38-0
0-47-36-21-28-2-0
0-7-8-46-34-4-0
0-9-25-18-24-49-23-0
0-6-33-16-3-17-0
Cost: 707
0-26-10-31-39-0
0-9-25-18-44-3-0
0-37-20-15-13-27-0
0-1-43-41-42-22-0
0-47-36-21-28-2-0
0-17-32-40-12-0
0-38-11-14-19-35-0
0-7-8-46-34-4-0
0-16-49-24-23-33-6-0
0-45-29-5-48-30-0
Cost: 707
0-26-10-31-39-0
0-9-25-18-44-3-0
0-37-20-15-13-27-0
0-1-43-41-42-22-0
0-47-36-21-28-2-0
0-17-32-40-12-0
0-38-11-14-19-35-0
0-7-8-46-34-4-0
0-16-49-24-23-33-6-0
0-45-29-5-48-30-0
Cost: 707
0-26-10-31-39-0
0-9-25-18-44-3-0
0-37-20-15-13-27-0
0-1-43-41-42-22-0
0-47-36-21-28-2-0
0-17-32-40-12-0
0-38-11-14-19-35-0
0-7-8-46-34-4-0
0-16-49-24-23-33-6-0
0-45-29-5-48-30-0
Cost: 707
0-22-42-41-43-1-0
0-26-10-31-39-0
0-30-48-5-29-45-0
0-12-40-32-44-0
0-47-36-21-28-2-0
0-37-20-15-13-27-0
0-6-33-16-3-17-0
0-7-8-46-34-4-0
0-23-49-24-18-25-9-0
0-35-19-14-11-38-0
Cost: 0
Cost: 722
0-7-8-46-34-4-0
0-22-42-41-43-23-16-0
0-45-29-5-48-30-0
0-26-10-31-9-0
0-2-28-21-36-47-0
0-38-11-14-19-35-0
0-32-25-18-24-49-44-0
0-12-39-40-17-0
0-27-13-15-20-37-0
0-6-33-1-3-0
Cost: 707
0-27-13-15-20-37-0
0-26-10-31-39-0
0-4-34-46-8-7-0
0-22-42-41-43-1-0
0-16-49-24-23-33-6-0
0-35-19-14-11-38-0
0-17-32-40-12-0
0-30-48-5-29-45-0
0-9-25-18-44-3-0
0-2-28-21-36-47-0
Cost: 707
0-17-32-40-12-0
0-6-33-23-24-49-16-0
0-26-10-31-39-0
0-7-8-46-34-4-0
0-47-36-21-28-2-0
0-35-19-14-11-38-0
0-37-20-15-13-27-0
0-30-48-5-29-45-0
0-9-25-18-44-3-0
0-22-42-41-43-1-0
